results_rootrelaxation/bin012_090_011.srr.sol
solution status: optimal solution found
objective value:                                33.25
_var382_                           0.0833333333333335 	(obj:5)
_var756_                           0.0555555555555564 	(obj:5)
_var774_                            0.611111111111111 	(obj:2)
_var782_                            0.222222222222223 	(obj:3)
_var792_                            0.222222222222223 	(obj:2)
_var793_                           0.0555555555555541 	(obj:2)
_var799_                            0.444444444444445 	(obj:3)
_var801_                            0.277777777777779 	(obj:3)
_var806_                            0.277777777777778 	(obj:3)
_var808_                           0.0833333333333334 	(obj:4)
_var810_                            0.333333333333333 	(obj:3)
_var816_                                         0.25 	(obj:4)
_var817_                            0.194444444444445 	(obj:3)
_var819_                            0.583333333333335 	(obj:4)
_var820_                           0.0833333333333327 	(obj:2)
_var826_                            0.388888888888889 	(obj:2)
_var828_                           0.0555555555555554 	(obj:3)
_var831_                            0.166666666666667 	(obj:2)
_var833_                            0.361111111111111 	(obj:4)
_var837_                            0.111111111111111 	(obj:2)
_var842_                            0.694444444444444 	(obj:2)
_var848_                            0.194444444444446 	(obj:2)
_var857_                           0.0555555555555557 	(obj:4)
_var859_                           0.0277777777777773 	(obj:3)
_var862_                            0.388888888888889 	(obj:2)
_var868_                            0.555555555555556 	(obj:3)
_var871_                            0.111111111111111 	(obj:4)
_var872_                            0.472222222222222 	(obj:3)
_var874_                           0.0833333333333329 	(obj:4)
_var876_                            0.138888888888889 	(obj:3)
_var879_                            0.138888888888888 	(obj:3)
_var882_                            0.305555555555556 	(obj:4)
_var888_                            0.111111111111111 	(obj:3)
_var889_                            0.111111111111111 	(obj:4)
_var892_                            0.083333333333333 	(obj:4)
_var898_                           0.0833333333333324 	(obj:4)
_var901_                                         0.25 	(obj:2)
_var905_                                         0.25 	(obj:4)
_var906_                           0.0555555555555557 	(obj:2)
_var908_                            0.333333333333334 	(obj:4)
_var909_                            0.305555555555555 	(obj:3)
_var911_                            0.194444444444445 	(obj:3)
_var923_                                         0.25 	(obj:4)
_var930_                           0.0833333333333336 	(obj:3)
_var931_                            0.138888888888889 	(obj:3)
_var932_                            0.333333333333333 	(obj:3)
_var940_                           0.0833333333333341 	(obj:3)
_var948_                            0.083333333333333 	(obj:4)
_var949_                           0.0833333333333328 	(obj:5)
_var950_                            0.138888888888889 	(obj:3)
